30
5
971922
0
0
22 13 22 25 32
1
0
22 38 30 29 44
2
0
25 16 21 19 17
3
0
6 9 10 7 11
4
0
16 20 18 15 25
5
0
19 13 15 13 12
6
0
68 80 64 74 74
7
0
48 32 41 30 46
8
0
14 16 9 17 15
9
0
75 85 94 79 57
10
0
34 39 59 28 49
11
0
20 18 13 11 15
12
0
5 5 10 9 8
13
0
27 23 25 24 19
14
0
25 24 30 25 36
15
0
49 35 38 26 31
16
0
53 40 62 69 71
17
0
3 4 2 5 3
18
0
10 6 10 7 10
19
0
6 4 11 3 4
20
0
44 39 45 22 21
21
0
10 8 10 3 8
22
0
18 14 14 17 13
23
0
41 38 36 34 30
24
0
77 53 63 55 42
25
0
53 83 46 76 37
26
0
64 85 64 112 101
27
0
22 31 24 29 41
28
0
43 35 28 26 43
29
0
8 11 8 4 8
